** ABAQUS Input Deck Generated by HyperMesh Version  : 2022.0.0.33
** Generated using HyperMesh-Abaqus Template Version : 2022.0.0.33
** Generated on 02-01-2026 at 21:55:31
**
**   Template:  ABAQUS/STANDARD 3D
**
*NODE
         4,  -2.84217094E-14,  9.0            ,  0.0            
         5,  3.552713679E-15,  6.0            ,  0.0            
         6,  3.552713679E-15,  3.0            ,  0.0            
         7,  0.0            ,  0.0            ,  0.0            
         8,  3.0            ,  -1.77635684E-15,  0.0            
         9,  6.0            ,  0.0            ,  0.0            
        10,  9.0            ,  0.0            ,  0.0            
        11,  8.3149157926016,  3.4441508912858,  0.0            
        12,  6.3639610306789,  6.3639610306789,  0.0            
        13,  3.4441508912858,  8.3149157926016,  0.0            
        14,  5.5783622942293,  2.5842593712925,  0.0            
        15,  4.8456990579042,  4.8673606741972,  0.0            
        16,  2.5616669778839,  5.595131419906 ,  0.0            
        17,  2.7104869822287,  2.724422129899 ,  0.0            
**HW_COMPONENT     ID=1     COLOR=3     NAME=auto1
*ELEMENT,TYPE=M3D4R
         1,         9,        10,        11,        14
         2,        14,        11,        12,        15
         3,        15,        12,        13,        16
         4,        16,        13,         4,         5
         5,        16,         5,         6,        17
         6,        17,         6,         7,         8
         7,        14,        15,        16,        17
         8,        14,        17,         8,         9
*****
